
******************************************************************************
This program contains Ipopt, a library for large-scale nonlinear optimization.
 Ipopt is released as open source code under the Eclipse Public License (EPL).
         For more information visit http://projects.coin-or.org/Ipopt
******************************************************************************

This is Ipopt version 3.12.13, running with linear solver mumps.
NOTE: Other linear solvers might be more efficient (see Ipopt documentation).

Number of nonzeros in equality constraint Jacobian...:      365
Number of nonzeros in inequality constraint Jacobian.:      104
Number of nonzeros in Lagrangian Hessian.............:      144

Total number of variables............................:       85
                     variables with only lower bounds:       16
                variables with lower and upper bounds:       41
                     variables with only upper bounds:        0
Total number of equality constraints.................:       82
Total number of inequality constraints...............:       28
        inequality constraints with only lower bounds:        0
   inequality constraints with lower and upper bounds:        0
        inequality constraints with only upper bounds:       28

iter    objective    inf_pr   inf_du lg(mu)  ||d||  lg(rg) alpha_du alpha_pr  ls
   0  5.2429287e+03 9.34e-01 1.00e+02   0.0 0.00e+00    -  0.00e+00 0.00e+00   0
   1  5.2429156e+03 9.34e-01 1.76e+06  -0.5 1.14e+02    -  4.15e-01 4.49e-07f  2
   2r 5.2429156e+03 9.34e-01 1.00e+03   1.2 0.00e+00    -  0.00e+00 2.50e-07R  6
   3r 5.2363846e+03 6.11e-01 4.79e+04  -0.3 4.65e-01    -  7.88e-01 4.67e-01f  1
   4r 5.2351041e+03 5.31e-01 1.51e+03  -0.2 1.25e-02   4.0 1.00e+00 9.36e-01f  1
   5  4.9615275e+03 5.26e-01 3.31e+03  -0.5 1.14e+02    -  3.61e-01 9.42e-03f  1
   6  4.8976388e+03 5.21e-01 4.41e+05   1.2 2.95e+01    -  9.86e-01 9.79e-03h  1
   7  4.7733118e+03 5.02e-01 1.16e+06   0.9 1.39e+01    -  1.00e+00 3.66e-02h  1
   8  4.7709801e+03 5.01e-01 1.70e+09   0.5 1.39e+01    -  1.00e+00 7.03e-04h  1
   9r 4.7709801e+03 5.01e-01 1.00e+03  -2.3 0.00e+00    -  0.00e+00 4.79e-07R  5
iter    objective    inf_pr   inf_du lg(mu)  ||d||  lg(rg) alpha_du alpha_pr  ls
  10r 4.7715078e+03 6.64e-01 1.10e+04  -0.3 1.32e+02    -  1.36e-01 3.32e-03f  1
  11r 4.7712798e+03 7.80e-01 2.14e+04  -1.5 1.11e+00    -  2.79e-01 1.08e-01f  1
  12r 4.7742023e+03 7.87e-01 4.33e+04  -1.4 7.95e-02    -  9.90e-01 3.82e-01f  1
  13r 4.8176673e+03 6.82e-01 2.80e+02  -1.4 1.70e-01    -  1.00e+00 9.87e-01f  1
  14r 4.7874851e+03 6.22e-01 1.73e+01  -2.2 1.35e-01    -  1.00e+00 1.00e+00f  1
  15r 4.7810942e+03 5.99e-01 1.22e+02  -3.3 2.97e-01    -  1.00e+00 9.69e-01f  1
  16r 4.7810276e+03 8.79e-01 6.63e+03  -3.9 3.22e-01    -  1.00e+00 8.68e-01f  1
  17r 4.7810670e+03 9.33e-01 1.07e+04  -4.2 7.58e-02    -  1.00e+00 7.21e-01f  1
  18r 4.7797358e+03 9.34e-01 4.07e+01  -5.4 2.53e-02    -  1.00e+00 9.97e-01f  1
  19r 4.7797677e+03 9.34e-01 7.47e-05  -5.9 5.54e-03    -  1.00e+00 1.00e+00h  1
iter    objective    inf_pr   inf_du lg(mu)  ||d||  lg(rg) alpha_du alpha_pr  ls
  20r 4.7796740e+03 9.34e-01 1.92e+00  -6.6 3.95e-03    -  9.90e-01 1.00e+00f  1
  21r 4.7796184e+03 9.34e-01 3.26e-02  -8.4 1.58e-03    -  1.00e+00 9.99e-01f  1
  22r 4.7796199e+03 9.34e-01 3.03e-06  -9.0 3.26e-05    -  1.00e+00 1.00e+00h  1

Number of Iterations....: 22

                                   (scaled)                 (unscaled)
Objective...............:   2.7092350698903709e+02    4.7796239811563191e+03
Dual infeasibility......:   8.9495451002153644e+01    1.5788759291071888e+03
Constraint violation....:   7.7284586213218322e-03    9.3390903855719121e-01
Complementarity.........:   1.0000091151004485e-09    1.7642129326571956e-08
Overall NLP error.......:   8.9495451002153644e+01    1.5788759291071888e+03


Number of objective function evaluations             = 36
Number of objective gradient evaluations             = 10
Number of equality constraint evaluations            = 36
Number of inequality constraint evaluations          = 36
Number of equality constraint Jacobian evaluations   = 26
Number of inequality constraint Jacobian evaluations = 26
Number of Lagrangian Hessian evaluations             = 23
Total CPU secs in IPOPT (w/o function evaluations)   =      0.033
Total CPU secs in NLP function evaluations           =      0.002

EXIT: Converged to a point of local infeasibility. Problem may be infeasible.
